100
32
3
15
4
14
5
28
27
13
10
10
7
17
10
8
8
10
11
4
1
18
14
1
3
25
7
2
12
9
9
1
19
5
2
2
2
2
3
20
1
2
1
17
21
1
4
19
1
2
19
5
1
1
17
1
2
4
1
5
17
1
3
3
4
1
3
3
2
4
1
16
2
14
5
1
1
3
3
2
2
4
1
5
4
19
3
3
3
3
2
2
2
5
1
1
17
2
1
1
1
1